results_rootrelaxation/bin018_070_034.srr.sol
solution status: optimal solution found
objective value:                     2.16954837578748
_var2908_                           0.120820503977253 	(obj:0)
_var3055_                          0.0152696712240768 	(obj:0)
_var3086_                           0.427587206961599 	(obj:0)
_var3096_                           0.122349765597762 	(obj:1)
_var3111_                           0.404351209278896 	(obj:0)
_var3134_                         0.00230447420008767 	(obj:0)
_var3144_                           0.249675100491184 	(obj:0)
_var3160_                          0.0306179753263145 	(obj:0)
_var3164_                          0.0175441459300777 	(obj:1)
_var3197_                          0.0261479438232768 	(obj:0)
_var3202_                           0.123765157404703 	(obj:0)
_var3217_                          0.0647274357130832 	(obj:0)
_var3233_                          0.0709374735010442 	(obj:0)
_var3239_                           0.269978059752434 	(obj:0)
_var3249_                           0.111123541621981 	(obj:1)
_var3275_                           0.054358441936005 	(obj:0)
_var3279_                           0.142354475732114 	(obj:0)
_var3281_                            0.24188242906117 	(obj:0)
_var3302_                         0.00519675321390006 	(obj:0)
_var3322_                           0.435987207816679 	(obj:0)
_var3331_                          0.0681828643745009 	(obj:0)
_var3342_                          0.0711243112052102 	(obj:0)
_var3346_                           0.171884987212802 	(obj:0)
_var3352_                          0.0123274405586034 	(obj:0)
_var3359_                           0.232708213234409 	(obj:0)
_var3377_                           0.302887647262954 	(obj:0)
_var3381_                           0.105505976027485 	(obj:0)
_var3385_                          0.0681828643745005 	(obj:1)
_var3401_                           0.132327982117165 	(obj:0)
_var3412_                           0.181243190435519 	(obj:0)
_var3417_                          0.0225440141033279 	(obj:0)
_var3420_                           0.141368447230463 	(obj:0)
_var3425_                          0.0608808022477526 	(obj:0)
_var3427_                          0.0983476763218353 	(obj:0)
_var3441_                          0.0213852212943537 	(obj:0)
_var3442_                         0.00170626576130829 	(obj:1)
_var3444_                          0.0518434724735107 	(obj:0)
_var3453_                           0.104475910263754 	(obj:1)
_var3454_                           0.313821429614848 	(obj:0)
_var3456_                           0.296109899334237 	(obj:1)
_var3458_                           0.127472838344069 	(obj:0)
_var3461_                          0.0697265200515579 	(obj:0)
_var3464_                           0.671971850355966 	(obj:0)
_var3472_                           0.339334467280953 	(obj:0)
_var3480_                           0.025744553951689 	(obj:0)
_var3481_                          0.0119351668891153 	(obj:0)
_var3482_                          0.0886303342627675 	(obj:0)
_var3486_                           0.337882235240211 	(obj:0)
_var3489_                           0.364105142169808 	(obj:0)
_var3490_                           0.328028149644034 	(obj:0)
_var3491_                            0.08299955036388 	(obj:0)
_var3492_                           0.331947323453696 	(obj:0)
_var3494_                           0.137397754099636 	(obj:0)
_var3495_                          0.0163393919009909 	(obj:0)
_var3500_                          0.0700522390239997 	(obj:0)
_var3501_                           0.040431408401417 	(obj:0)
_var3505_                           0.165435309760807 	(obj:0)
_var3506_                          0.0466958870764891 	(obj:0)
_var3507_                            0.13067458957343 	(obj:1)
_var3511_                           0.165036979186332 	(obj:0)
_var3514_                           0.130674589573434 	(obj:0)
_var3519_                           0.106969359899157 	(obj:0)
_var3520_                           0.190630395544398 	(obj:0)
_var3525_                         0.00215654320319944 	(obj:0)
_var3527_                           0.259093801505963 	(obj:0)
_var3530_                            0.19634604737069 	(obj:0)
_var3533_                          0.0605966265176925 	(obj:0)
_var3536_                           0.139287365937529 	(obj:0)
_var3537_                          0.0381178844727234 	(obj:1)
_var3538_                           0.211891414657853 	(obj:0)
_var3547_                           0.197353560070601 	(obj:1)
_var3548_                             0.0920087333444 	(obj:0)
_var3555_                           0.122710115815146 	(obj:1)
_var3557_                         0.00388475633783031 	(obj:0)
_var3562_                          0.0665137951355165 	(obj:0)
_var3564_                          0.0638202538626901 	(obj:0)
_var3565_                          0.0855968224763933 	(obj:0)
_var3567_                          0.0529035733601663 	(obj:0)
_var3569_                         0.00709947646963649 	(obj:0)
_var3571_                           0.122477245633153 	(obj:1)
_var3574_                           0.255362177977526 	(obj:0)
_var3575_                           0.174792729148748 	(obj:0)
_var3576_                           0.349874550809244 	(obj:0)
_var3578_                           0.118739422684318 	(obj:0)
_var3582_                          0.0270234872523492 	(obj:0)
_var3585_                           0.054011986971235 	(obj:0)
_var3587_                          0.0111448476759498 	(obj:0)
_var3589_                          0.0349375105550492 	(obj:1)
_var3591_                          0.0709664753872337 	(obj:0)
_var3592_                           0.076323059634862 	(obj:0)
_var3593_                          0.0304387978254978 	(obj:1)
_var3594_                           0.104199929169846 	(obj:0)
_var3595_                           0.203626589670342 	(obj:0)
_var3597_                           0.011574816671745 	(obj:1)
_var3598_                          0.0295002625846369 	(obj:0)
_var3604_                          0.0332453538194514 	(obj:0)
_var3607_                          0.0121706379773583 	(obj:0)
_var3608_                           0.094762344863071 	(obj:0)
_var3612_                           0.332456317245003 	(obj:0)
_var3614_                           0.122210741814095 	(obj:1)
_var3615_                           0.189602075594456 	(obj:0)
_var3616_                           0.100863714649936 	(obj:0)
_var3617_                           0.197353560070601 	(obj:0)
_var3618_                           0.177966333584392 	(obj:0)
_var3620_                          0.0169943927311363 	(obj:0)
_var3621_                           0.169901457718881 	(obj:0)
_var3623_                          0.0440243644347126 	(obj:0)
_var3624_                           0.091313756941398 	(obj:0)
_var3625_                          0.0355456950725985 	(obj:0)
_var3626_                          0.0793226527533726 	(obj:0)
_var3627_                           0.175322316417001 	(obj:0)
_var3628_                          0.0955156100692812 	(obj:0)
_var3630_                           0.110531532603613 	(obj:0)
_var3631_                           0.103474454468809 	(obj:0)
_var3632_                           0.170903020400381 	(obj:0)
_var3633_                           0.161535090500849 	(obj:0)
_var3634_                           0.158854518130453 	(obj:1)
_var3636_                           0.115563609259798 	(obj:0)
_var3640_                           0.140103729842086 	(obj:0)
_var3641_                          0.0791953864911066 	(obj:0)
_var3642_                           0.173716951566854 	(obj:1)
_var3643_                          0.0346145706331344 	(obj:0)
_var3650_                          0.0273280426862185 	(obj:0)
_var3653_                           0.213669864474972 	(obj:0)
_var3655_                          0.0878038161351749 	(obj:0)
_var3657_                          0.0208392803826755 	(obj:0)
_var3658_                           0.147628294154674 	(obj:1)
_var3659_                          0.0146158817749085 	(obj:0)
_var3660_                           0.171436704986683 	(obj:0)
_var3662_                          0.0246947854323463 	(obj:1)
_var3665_                          0.0758705019463968 	(obj:0)
_var3666_                           0.110929649404966 	(obj:1)
_var3667_                          0.0775481933677737 	(obj:0)
_var3668_                         0.00359438118739386 	(obj:0)
_var3669_                           0.072533218560915 	(obj:0)
_var3670_                          0.0202441003964253 	(obj:0)
_var3671_                         0.00128766236958372 	(obj:0)
_var3675_                          0.0015622539382253 	(obj:1)
_var3677_                          0.0311155322558653 	(obj:0)
_var3678_                          0.0184489050184676 	(obj:1)
_var3679_                         0.00786072253889303 	(obj:0)
_var3680_                         0.00172536282643624 	(obj:1)
_var3681_                         0.00187037225739123 	(obj:0)
